30
1 2 3 4 5 6 7 8 9 10 11 12 13 14 15 16 17 18 19 20 21 22 23 24 25 26 27 28 29 30
12
6
1 2 3 4 5 6
6
7 8 9 10 11 12
6
13 14 15 16 17 18
6
19 20 21 22 23 24
6
25 26 27 28 29 30
3
1 7 13
3
8 15 21
3
2 11 22
3
5 18 25
3
12 24 27
3
6 19 28
3
14 26 30
6
